NAME : portcgen-20-10
COMMENT : portcgen N=20, seed=10
TYPE : TSP
DIMENSION : 20
EDGE_WEIGHT_TYPE : EUC_2D
NODE_COORD_SECTION
1 98 88
2 108 79
3 69 80
4 82 89
5 95 91
6 88 93
7 77 84
8 58 94
9 92 45
10 91 87
11 57 73
12 77 100
13 74 79
14 56 77
15 99 90
16 90 40
17 88 77
18 85 124
19 85 59
20 66 75
